p edge 50 124
e 1 5
e 1 47
e 2 9
e 2 20
e 3 16
e 3 27
e 3 31
e 3 33
e 3 37
e 3 42
e 3 44
e 3 46
e 4 13
e 4 23
e 4 24
e 4 36
e 4 45
e 5 6
e 5 37
e 5 38
e 6 7
e 6 18
e 6 34
e 6 36
e 6 42
e 7 12
e 7 14
e 7 20
e 7 44
e 7 48
e 8 26
e 8 27
e 8 29
e 8 32
e 8 35
e 8 38
e 9 26
e 9 27
e 10 18
e 10 28
e 10 35
e 11 17
e 11 30
e 11 33
e 11 34
e 11 40
e 12 18
e 12 24
e 12 38
e 12 47
e 13 17
e 13 29
e 14 15
e 14 20
e 14 26
e 14 29
e 14 38
e 15 40
e 15 41
e 16 25
e 16 26
e 16 30
e 16 31
e 16 35
e 16 42
e 17 20
e 17 23
e 17 25
e 17 36
e 17 38
e 17 40
e 17 41
e 17 49
e 18 36
e 18 44
e 19 22
e 19 49
e 20 25
e 20 41
e 20 45
e 21 25
e 21 27
e 21 45
e 22 31
e 22 41
e 23 33
e 25 30
e 25 38
e 26 39
e 26 40
e 26 44
e 26 48
e 27 30
e 27 36
e 28 32
e 28 33
e 28 37
e 28 43
e 28 45
e 29 36
e 29 37
e 30 43
e 30 44
e 30 45
e 30 49
e 31 35
e 31 43
e 32 46
e 34 36
e 34 37
e 34 49
e 35 36
e 35 42
e 35 46
e 35 47
e 36 46
e 36 48
e 37 44
e 37 50
e 39 48
e 41 43
e 45 47
e 46 48
e 48 50
